Route #1: 14 27 39 44 15 5 31 7 1
Route #2: 24 46 10 18
Route #3: 8 34 11 43 40 23 38 3
Route #4: 32 35 42 25 2 41
Route #5: 12 17 19 36 45 26 13 6
Route #6: 20 29 30 22
Route #7: 33 4 37 9 16 21 28
cost 1857.8072359037324
